3210
0
2
3
279
278
4
277
276
275
274
273
272
271
16
17
18
19
20
21
128
127
126
125
30
31
32
29
28
27
26
22
25
23
24
14
13
12
11
10
8
7
9
6
5
1
242
243
241
240
239
238
231
232
233
234
235
236
237
246
245
244
247
250
251
230
229
228
227
226
225
224
223
222
219
218
215
214
211
210
207
208
209
252
253
254
255
256
257
258
259
260
261
262
263
264
265
266
138
137
136
135
134
270
269
268
267
140
139
148
141
142
143
144
145
146
147
149
150
178
151
152
156
153
155
154
129
130
131
132
133
15
248
249
206
205
204
203
202
200
199
198
197
194
195
196
201
193
192
191
190
189
188
187
185
184
183
182
181
176
177
180
179
160
159
158
157
119
120
121
122
123
124
33
34
35
36
37
38
39
40
41
42
43
60
61
118
62
63
64
65
66
67
70
71
72
73
74
75
76
77
78
79
80
81
82
83
84
85
86
116
115
114
111
110
108
104
103
102
101
100
99
98
93
94
95
96
97
92
91
90
89
109
112
88
87
113
117
59
44
45
46
47
48
49
50
51
52
53
54
55
56
57
58
68
69
105
106
107
173
174
161
162
163
164
165
166
167
168
169
170
171
172
175
186
220
217
216
213
212
221
